SPARKNaCl/why3-z3/sparknacl-core.adb_126_35_range_check_1.smt2
;; produced by z3_gnatprove.drv ;;
(set-info :smt-lib-version 2.5)
(set-info :source |VC generated by SPARK 2014|)
(set-info :category industrial)
(set-info :status unknown)
;;; generated by SMT-LIB2 driver
;;; SMT-LIB2 driver: bit-vectors, common part
;;; SMT-LIB2: integer arithmetic
(declare-sort byte 0)

;; "to_rep"
(declare-fun to_rep (byte) (_ BitVec 8))

;; "of_rep"
(declare-fun of_rep ((_ BitVec 8)) byte)

;; "inversion_axiom"
(assert
  (forall ((x byte)) (! (= (of_rep (to_rep x)) x) :pattern ((to_rep x)) )))

;; "range_axiom"
(assert true)

;; "coerce_axiom"
(assert
  (forall ((x (_ BitVec 8)))
    (! (= (to_rep (of_rep x)) x) :pattern ((to_rep (of_rep x))) )))

(declare-sort map1 0)

;; "has_bounds"
(declare-fun has_bounds (map1
  Int
  Int) Bool)

(declare-datatypes ()
  ((us_split_fields
   (us_split_fieldsqtmk (rec__ada___sparknacl__core__salsa20_key__f map1)))))

(declare-datatypes ()
  ((us_rep (us_repqtmk (us_split_fields1 us_split_fields)))))

;; "dynamic_invariant"
(define-fun dynamic_invariant ((temp___expr_300 us_rep) (temp___is_init_296 Bool) (temp___skip_constant_297 Bool) (temp___do_toplevel_298 Bool) (temp___do_typ_inv_299 Bool)) Bool
  (has_bounds
    (rec__ada___sparknacl__core__salsa20_key__f
      (us_split_fields1 temp___expr_300))
    0
    31))

(declare-const input map1)

(declare-const k us_rep)

(declare-const c map1)

(declare-sort u32 0)

;; "to_rep"
(declare-fun to_rep1 (u32) (_ BitVec 32))

;; "of_rep"
(declare-fun of_rep1 ((_ BitVec 32)) u32)

;; "inversion_axiom"
(assert
  (forall ((x u32)) (! (= (of_rep1 (to_rep1 x)) x) :pattern ((to_rep1 x)) )))

;; "range_axiom"
(assert true)

;; "coerce_axiom"
(assert
  (forall ((x (_ BitVec 32)))
    (! (= (to_rep1 (of_rep1 x)) x) :pattern ((to_rep1 (of_rep1 x))) )))

(declare-sort map2 0)

(declare-datatypes ()
  ((map__ref (map__refqtmk (map__content map2)))))

;; "has_bounds"
(declare-fun has_bounds1 (map2
  Int
  Int) Bool)

;; "get"
(declare-fun get (map2
  Int) u32)

;; "temp_____aggregate_def_1491"
(declare-fun temp_____aggregate_def_1491 ((_ BitVec 32)) map2)

(declare-const x map2)

(declare-const y map2)

(declare-const w map2)

(declare-const t map2)

;; "t'unused"
(define-fun tqtunused () map__ref
  (map__refqtmk t))

;; "w'unused"
(define-fun wqtunused () map__ref
  (map__refqtmk w))

;; "Assume"
(assert (has_bounds input 0 15))

;; "Assume"
(assert (dynamic_invariant k true false true true))

;; "Assume"
(assert (has_bounds c 0 15))

;; "Assume"
(assert (has_bounds1 x 0 15))

;; "Assume"
(assert (has_bounds1 y 0 15))

;; "Assume"
(assert true)

;; "Assume"
(assert (has_bounds1 w 0 15))

;; "Assume"
(assert true)

;; "Assume"
(assert (has_bounds1 t 0 3))

(declare-const temp___1495 map2)

;; "H"
(assert (has_bounds1 temp___1495 0 15))

;; "H"
(assert
  (forall ((temp___1494 Int))
    (! (=>
         (and (<= 0 temp___1494) (<= temp___1494 15))
         (= (to_rep1 (get temp___1495 temp___1494)) #x00000000)) :pattern (
    (get
      temp___1495
      temp___1494)) )))

;; "H"
(assert (= temp___1495 (temp_____aggregate_def_1491 #x00000000)))

;; "temp_____aggregate_def_1491'result'unused"
(define-fun temp_____aggregate_def_1491qtresultqtunused () map2
  temp___1495)

(declare-const w1 map2)

;; "w'unused"
(define-fun wqtunused1 () map__ref
  (map__refqtmk w1))

;; "H"
(assert (= w1 temp___1495))

;; "o"
(define-fun o () us_split_fields
  (us_split_fields1 k))

;; "__split_fields'result'unused"
(define-fun us_split_fieldsqtresultqtunused () us_split_fields
  o)

;; "temp___1585"
(define-fun temp___1585 () map1
  (rec__ada___sparknacl__core__salsa20_key__f o))

;; "rec__ada___sparknacl__core__salsa20_key__f'result'unused"
(define-fun rec__ada___sparknacl__core__salsa20_key__fqtresultqtunused 
  () map1
  temp___1585)

;; "H"
(assert (<= 28 31))

;; Goal "def'vc"
;; File "sparknacl-core.adb", line 14, characters 0-0
(assert
  (not (<= 0 28)))

(check-sat)
